Route #1: 19 15 24 16 42 33 8
Route #2: 11 12 35 18 25 44
Route #3: 32 3 22 10 7 39 5 36
Route #4: 13 2 37 30 4 38
Route #5: 23
Route #6: 9 17 45 6 43 26 14
Route #7: 21 29 31 34 40 1 27 20 41 28
Cost 914
Time 0.053125
